
  32    1
  10

   0   0   6 2 3 4 6 7 11 
   8   1   4 18 12 10 5 
   8   5   5 18 15 14 13 9 
   9   2   4 31 18 10 9 
   9   1   2 9 8 
   5   1   3 15 13 9 
  10   1   2 16 8 
   8   2   7 29 22 21 19 17 15 13 
  10   2   9 30 29 28 27 22 21 20 17 16 
  10   2   7 30 29 22 21 17 15 14 
   3   3   8 30 29 27 21 20 19 18 17 
   9   1   3 29 28 14 
   5   3   5 31 30 28 25 20 
   2   1   4 27 26 25 19 
   2   2   4 28 27 25 23 
   8   1   2 26 19 
   7   3   3 25 24 23 
   5   2   3 26 25 23 
   7   1   2 24 23 
   4   2   2 24 23 
   6   5   1 23 
   9   2   1 26 
   5   3   1 32
   4   3   1 32
   2   3   1 32
   4   1   1 32
   5   1   1 32
  10   1   1 32
   8   2   1 32
   9   2   1 32
   6   1   1 32
   0   0   0 
